c status 28 1469274441170
s td 23 28 50
b 1 1 13 19 24 25 30 36 41
b 2 2 20 24 26 31 35 37 42
b 3 3 5 6 19 27 34 37 44
b 4 4 6 7 20 28 30 38 45
b 5 5 6 7 19 21 27 29 31 34 37 39 41 44
b 6 6 7 19 20 21 22 25 27 28 29 30 31 32 34 37 38 39 40 41 42 44 45
b 7 7 19 20 21 22 23 25 26 27 28 29 30 31 32 33 34 36 37 38 39 40 41 42 43 44 45
b 8 8 10 11 19 28 31 40 43
b 9 9 11 12 20 29 32 36 44
b 10 10 11 12 19 21 25 28 31 33 37 40 43 45
b 11 11 12 19 20 21 22 25 26 28 29 31 32 33 34 36 37 38 40 41 43 44 45
b 12 12 19 20 21 22 23 25 26 27 28 29 30 31 32 33 34 36 37 38 39 40 41 42 43 44 45
b 13 13 19 21 24 25 27 30 32 35 36 38 41 43
b 14 14 16 17 19 29 33 38 42
b 15 15 17 18 20 25 34 39 43
b 16 16 17 18 19 21 26 29 30 33 38 40 42 44
b 17 17 18 19 20 21 22 25 26 27 29 30 31 33 34 36 38 39 40 42 43 44 45
b 18 18 19 20 21 22 23 25 26 27 28 29 30 31 32 33 34 36 37 38 39 40 41 42 43 44 45
b 19 19 20 21 22 23 24 25 26 27 28 29 30 31 32 33 34 35 36 37 38 39 40 41 42 43 44 45 46
b 20 20 21 22 23 24 25 26 27 28 29 30 31 32 33 34 35 36 37 38 39 40 41 42 43 44 45 46 47
b 21 21 22 23 24 25 26 27 28 29 30 31 32 33 34 35 36 37 38 39 40 41 42 43 44 45 46 47 48
b 22 22 23 24 25 26 27 28 29 30 31 32 33 34 35 36 37 38 39 40 41 42 43 44 45 46 47 48 49
b 23 23 24 25 26 27 28 29 30 31 32 33 34 35 36 37 38 39 40 41 42 43 44 45 46 47 48 49 50
1 13
13 19
19 20
20 21
21 22
22 23
19 12
19 18
12 7
12 11
18 17
7 6
11 10
6 5
17 16
5 3
10 8
19 2
11 9
16 14
6 4
17 15
